c File: data_files/evolved_graphs/g0348.col
c
c Auto generated graph
c
p edge 100 1041
e 1 4
e 1 5
e 1 10
e 1 11
e 1 25
e 1 27
e 1 28
e 1 29
e 1 30
e 1 31
e 1 32
e 1 33
e 1 34
e 1 48
e 1 68
e 1 71
e 1 72
e 1 73
e 1 74
e 1 75
e 1 78
e 1 79
e 1 80
e 1 82
e 1 86
e 1 87
e 1 88
e 1 92
e 1 96
e 1 99
e 2 4
e 2 5
e 2 11
e 2 25
e 2 26
e 2 27
e 2 28
e 2 29
e 2 30
e 2 31
e 2 32
e 2 33
e 2 34
e 2 69
e 2 71
e 2 72
e 2 73
e 2 74
e 2 75
e 2 77
e 2 78
e 2 80
e 2 82
e 2 87
e 2 90
e 2 94
e 2 99
e 3 4
e 3 25
e 3 26
e 3 27
e 3 28
e 3 29
e 3 30
e 3 31
e 3 32
e 3 33
e 3 34
e 3 68
e 3 71
e 3 72
e 3 73
e 3 74
e 3 75
e 3 76
e 3 81
e 3 82
e 3 85
e 3 87
e 3 92
e 3 95
e 3 100
e 4 25
e 4 26
e 4 27
e 4 28
e 4 30
e 4 31
e 4 32
e 4 33
e 4 34
e 4 69
e 4 78
e 4 85
e 4 87
e 4 90
e 4 94
e 4 97
e 5 11
e 5 25
e 5 26
e 5 27
e 5 28
e 5 29
e 5 30
e 5 31
e 5 32
e 5 33
e 5 34
e 5 69
e 5 70
e 5 78
e 5 80
e 5 85
e 5 87
e 5 89
e 5 92
e 5 95
e 5 98
e 6 24
e 6 25
e 6 26
e 6 27
e 6 28
e 6 29
e 6 30
e 6 31
e 6 32
e 6 33
e 6 34
e 6 42
e 6 53
e 6 61
e 6 68
e 6 78
e 6 81
e 6 83
e 6 84
e 6 88
e 6 89
e 6 95
e 6 96
e 6 97
e 6 98
e 6 99
e 7 25
e 7 26
e 7 27
e 7 28
e 7 29
e 7 30
e 7 31
e 7 32
e 7 33
e 7 34
e 7 68
e 7 77
e 7 82
e 7 84
e 7 85
e 7 86
e 7 89
e 7 91
e 7 95
e 7 97
e 7 98
e 8 24
e 8 25
e 8 26
e 8 27
e 8 28
e 8 29
e 8 30
e 8 31
e 8 32
e 8 33
e 8 34
e 8 49
e 8 68
e 8 80
e 8 82
e 8 84
e 8 85
e 8 86
e 8 88
e 8 89
e 8 90
e 8 91
e 8 93
e 8 98
e 8 99
e 8 100
e 9 17
e 9 24
e 9 26
e 9 27
e 9 28
e 9 30
e 9 31
e 9 32
e 9 33
e 9 34
e 9 70
e 9 77
e 9 79
e 9 82
e 9 83
e 9 84
e 9 85
e 9 87
e 9 89
e 9 90
e 9 94
e 9 96
e 9 98
e 10 25
e 10 26
e 10 27
e 10 28
e 10 29
e 10 30
e 10 31
e 10 32
e 10 33
e 10 34
e 10 70
e 10 78
e 10 79
e 10 81
e 10 89
e 10 90
e 10 91
e 10 92
e 10 94
e 10 97
e 10 100
e 11 18
e 11 25
e 11 26
e 11 27
e 11 28
e 11 29
e 11 30
e 11 31
e 11 32
e 11 33
e 11 34
e 11 80
e 11 84
e 11 85
e 11 86
e 11 87
e 11 90
e 11 91
e 11 93
e 11 95
e 11 98
e 11 99
e 11 100
e 12 25
e 12 26
e 12 27
e 12 28
e 12 30
e 12 31
e 12 32
e 12 33
e 12 34
e 12 60
e 12 83
e 12 85
e 12 86
e 12 94
e 12 95
e 12 96
e 12 97
e 12 98
e 12 99
e 12 100
e 13 25
e 13 27
e 13 28
e 13 30
e 13 31
e 13 32
e 13 33
e 13 34
e 13 48
e 13 57
e 13 88
e 13 89
e 13 94
e 13 95
e 13 96
e 13 97
e 13 98
e 14 25
e 14 27
e 14 28
e 14 30
e 14 31
e 14 32
e 14 33
e 14 34
e 14 53
e 14 59
e 14 70
e 14 80
e 14 84
e 14 87
e 14 88
e 14 94
e 14 95
e 14 96
e 14 97
e 14 98
e 14 99
e 14 100
e 15 25
e 15 27
e 15 28
e 15 29
e 15 30
e 15 31
e 15 32
e 15 33
e 15 34
e 15 78
e 15 79
e 15 80
e 15 84
e 15 94
e 15 96
e 15 97
e 15 99
e 15 100
e 16 25
e 16 27
e 16 28
e 16 30
e 16 31
e 16 32
e 16 33
e 16 34
e 16 80
e 16 81
e 16 82
e 16 90
e 16 92
e 16 94
e 16 95
e 16 96
e 16 97
e 16 99
e 16 100
e 17 25
e 17 27
e 17 28
e 17 29
e 17 30
e 17 31
e 17 32
e 17 33
e 17 34
e 17 94
e 17 96
e 17 97
e 17 98
e 17 99
e 17 100
e 18 25
e 18 26
e 18 27
e 18 28
e 18 29
e 18 30
e 18 31
e 18 32
e 18 33
e 18 34
e 18 69
e 18 95
e 18 96
e 18 98
e 18 100
e 19 25
e 19 26
e 19 27
e 19 28
e 19 29
e 19 30
e 19 31
e 19 32
e 19 33
e 19 34
e 19 35
e 19 36
e 19 37
e 19 38
e 19 39
e 19 40
e 19 41
e 19 44
e 19 45
e 19 47
e 19 48
e 19 55
e 19 60
e 19 61
e 19 66
e 19 73
e 19 94
e 19 95
e 19 96
e 19 98
e 19 99
e 19 100
e 20 25
e 20 26
e 20 27
e 20 28
e 20 29
e 20 30
e 20 31
e 20 32
e 20 33
e 20 34
e 20 35
e 20 36
e 20 37
e 20 38
e 20 39
e 20 40
e 20 41
e 20 46
e 20 47
e 20 48
e 20 50
e 20 54
e 20 57
e 20 58
e 20 59
e 20 61
e 20 62
e 20 64
e 20 72
e 20 74
e 20 75
e 20 82
e 20 94
e 20 96
e 20 97
e 20 98
e 20 99
e 21 25
e 21 26
e 21 27
e 21 28
e 21 29
e 21 30
e 21 31
e 21 32
e 21 33
e 21 34
e 21 35
e 21 36
e 21 37
e 21 38
e 21 39
e 21 40
e 21 41
e 21 45
e 21 52
e 21 56
e 21 57
e 21 59
e 21 62
e 21 68
e 21 71
e 21 75
e 21 95
e 21 96
e 21 97
e 21 98
e 21 99
e 22 25
e 22 26
e 22 27
e 22 28
e 22 29
e 22 30
e 22 31
e 22 32
e 22 33
e 22 34
e 22 35
e 22 36
e 22 37
e 22 38
e 22 39
e 22 40
e 22 41
e 22 43
e 22 53
e 22 67
e 22 68
e 22 73
e 22 89
e 22 94
e 22 95
e 22 97
e 22 98
e 22 99
e 22 100
e 23 25
e 23 26
e 23 27
e 23 28
e 23 29
e 23 30
e 23 31
e 23 32
e 23 33
e 23 34
e 23 35
e 23 36
e 23 37
e 23 38
e 23 39
e 23 40
e 23 41
e 23 46
e 23 49
e 23 60
e 23 62
e 23 66
e 23 73
e 23 86
e 23 95
e 23 96
e 23 97
e 23 98
e 23 99
e 23 100
e 24 25
e 24 26
e 24 27
e 24 28
e 24 29
e 24 30
e 24 31
e 24 32
e 24 33
e 24 34
e 24 35
e 24 36
e 24 37
e 24 38
e 24 39
e 24 40
e 24 41
e 24 46
e 24 52
e 24 55
e 24 67
e 24 73
e 24 94
e 24 96
e 24 97
e 24 98
e 24 99
e 24 100
e 25 43
e 25 45
e 25 47
e 25 68
e 25 74
e 25 94
e 25 96
e 25 97
e 25 98
e 25 99
e 25 100
e 26 46
e 26 54
e 26 55
e 26 56
e 26 57
e 26 61
e 26 70
e 26 96
e 26 97
e 26 98
e 26 99
e 26 100
e 27 42
e 27 43
e 27 49
e 27 61
e 27 62
e 27 63
e 27 65
e 27 67
e 27 69
e 27 71
e 27 74
e 27 76
e 27 94
e 27 95
e 27 96
e 27 97
e 27 98
e 27 99
e 27 100
e 28 42
e 28 52
e 28 54
e 28 64
e 28 65
e 28 66
e 28 71
e 28 94
e 28 95
e 28 96
e 28 97
e 28 98
e 28 100
e 29 43
e 29 47
e 29 51
e 29 56
e 29 63
e 29 72
e 29 76
e 29 94
e 29 95
e 29 96
e 29 97
e 29 98
e 29 99
e 29 100
e 30 31
e 30 32
e 30 33
e 30 34
e 30 35
e 30 37
e 30 38
e 30 40
e 30 42
e 30 43
e 30 44
e 30 47
e 30 48
e 30 50
e 30 52
e 30 53
e 30 55
e 30 56
e 30 57
e 30 59
e 30 61
e 30 62
e 30 63
e 30 64
e 30 65
e 30 66
e 30 94
e 30 95
e 30 96
e 30 97
e 30 98
e 30 99
e 30 100
e 31 40
e 31 41
e 31 53
e 31 60
e 31 62
e 31 64
e 31 67
e 31 94
e 31 95
e 31 97
e 31 99
e 31 100
e 32 40
e 32 41
e 32 44
e 32 50
e 32 53
e 32 61
e 32 66
e 32 94
e 32 97
e 32 98
e 32 99
e 32 100
e 33 39
e 33 40
e 33 41
e 33 43
e 33 46
e 33 48
e 33 56
e 33 58
e 33 59
e 33 61
e 33 63
e 33 67
e 33 68
e 33 69
e 33 70
e 33 95
e 33 96
e 33 97
e 33 98
e 33 99
e 33 100
e 34 44
e 34 46
e 34 49
e 34 55
e 34 58
e 34 62
e 34 63
e 34 65
e 34 66
e 34 67
e 34 68
e 34 70
e 34 94
e 34 95
e 34 96
e 34 97
e 34 98
e 34 99
e 34 100
e 35 39
e 35 40
e 35 52
e 35 53
e 35 56
e 35 59
e 35 60
e 35 62
e 35 64
e 35 66
e 35 94
e 35 96
e 35 98
e 35 99
e 35 100
e 36 94
e 36 95
e 36 96
e 36 97
e 36 98
e 36 99
e 36 100
e 37 94
e 37 95
e 37 96
e 37 100
e 38 94
e 38 95
e 38 96
e 38 99
e 38 100
e 39 94
e 39 95
e 39 96
e 39 97
e 39 98
e 39 99
e 39 100
e 40 94
e 40 96
e 40 97
e 40 99
e 40 100
e 55 87
e 63 77
e 63 83
e 63 86
e 65 86
e 65 88
e 65 89
e 65 90
e 65 91
e 65 92
e 65 93
e 66 86
e 66 87
e 66 88
e 66 89
e 66 90
e 66 91
e 66 93
e 67 86
e 67 87
e 67 88
e 67 89
e 67 90
e 67 91
e 67 92
e 67 93
e 67 94
e 67 95
e 67 96
e 67 97
e 67 98
e 67 99
e 67 100
e 68 86
e 68 87
e 68 88
e 68 89
e 68 90
e 68 91
e 68 92
e 68 93
e 68 94
e 68 95
e 68 96
e 68 98
e 68 99
e 68 100
e 69 86
e 69 87
e 69 89
e 69 90
e 69 92
e 69 94
e 69 95
e 69 96
e 69 97
e 69 98
e 69 99
e 69 100
e 70 86
e 70 87
e 70 88
e 70 89
e 70 90
e 70 91
e 70 92
e 70 93
e 70 94
e 70 95
e 70 96
e 70 97
e 70 98
e 70 99
e 70 100
e 71 86
e 71 87
e 71 89
e 71 90
e 71 91
e 71 92
e 71 94
e 71 95
e 71 96
e 71 97
e 71 98
e 71 99
e 71 100
e 72 86
e 72 89
e 72 90
e 72 91
e 72 92
e 72 93
e 72 94
e 72 95
e 72 96
e 72 97
e 72 98
e 72 99
e 72 100
e 73 87
e 73 88
e 73 89
e 73 91
e 73 92
e 73 94
e 73 95
e 73 96
e 73 97
e 73 98
e 73 99
e 73 100
e 74 87
e 74 88
e 74 89
e 74 90
e 74 92
e 74 93
e 74 94
e 74 95
e 74 96
e 74 97
e 74 98
e 74 99
e 74 100
e 75 86
e 75 88
e 75 89
e 75 91
e 75 93
e 75 94
e 75 95
e 75 96
e 75 97
e 75 98
e 75 99
e 75 100
e 76 86
e 76 87
e 76 88
e 76 89
e 76 90
e 76 92
e 76 94
e 76 95
e 76 96
e 76 97
e 76 98
e 76 99
e 76 100
e 77 78
e 77 94
e 77 95
e 77 96
e 77 97
e 77 98
e 77 99
e 77 100
e 78 94
e 78 95
e 78 96
e 78 97
e 78 98
e 78 99
e 78 100
e 79 89
e 79 94
e 79 95
e 79 96
e 79 97
e 79 98
e 79 99
e 79 100
e 80 89
e 80 94
e 80 95
e 80 96
e 80 97
e 80 98
e 80 99
e 80 100
e 81 89
e 81 94
e 81 95
e 81 96
e 81 97
e 81 98
e 81 99
e 81 100
e 82 94
e 82 95
e 82 96
e 82 97
e 82 99
e 82 100
e 83 94
e 83 95
e 83 96
e 83 97
e 83 98
e 83 99
e 83 100
e 84 94
e 84 95
e 84 96
e 84 97
e 84 98
e 84 99
e 84 100
e 85 95
e 85 96
e 85 97
e 85 98
e 85 99
e 86 94
e 86 99
e 86 100
e 87 94
e 87 95
e 87 96
e 87 97
e 87 98
e 87 99
e 87 100
e 88 90
e 88 94
e 88 96
e 88 97
e 88 98
e 88 99
e 88 100
e 89 98
e 89 99
e 89 100
e 90 96
e 90 98
e 90 99
e 90 100
e 91 96
e 91 98
e 91 99
e 91 100
e 92 98
e 92 99
e 92 100
e 93 98
e 93 99
e 93 100
e 94 98
e 94 99
e 94 100
e 95 98
e 95 99
e 95 100
e 96 98
e 96 99
e 96 100
e 97 98
e 97 99
e 97 100
